CMD:
./solvers/bin/cadical --plain --no-reduce -t 1600 ./data/cnfs//nusmvreactorp6/nusmvreactorp6.81.cnf

c --- [ banner ] -------------------------------------------------------------
c 
c CaDiCaL SAT Solver
c Copyright (c) 2016-2024
c A. Biere, M. Fleury, N. Froleyks, K. Fazekas, F. Pollitt, T. Faller
c JKU Linz, University of Freiburg, TU Wien
c 
c Version 2.1.3 5296d3d2a9bf48c154ab2acb5e44625776d821bf
c g++ (Gentoo 12.3.1_p20230526 p2) 12.3.1 20230526 -Wall -Wextra -O3 -DNDEBUG
c Sat Aug 9 07:26:21 PDT 2025 Linux cedar2.int.cedar.computecanada.ca 5.14.0-362.24.2.el9_3.x86_64 x86_64
c 
c --- [ limit ] --------------------------------------------------------------
c 
c setting time limit to 1600 seconds real time (due to '-t 1600')
c 
c --- [ parsing input ] ------------------------------------------------------
c 
c reading DIMACS file from './data/cnfs//nusmvreactorp6/nusmvreactorp6.81.cnf'
c opening file to read './data/cnfs//nusmvreactorp6/nusmvreactorp6.81.cnf'
c found 'p cnf 108308 306346' header
c parsed 306346 clauses in 0.05 seconds process time
c 
c --- [ options ] ------------------------------------------------------------
c 
c   --compact=false                (different from default 'true')
c   --decompose=false              (different from default 'true')
c   --deduplicate=false            (different from default 'true')
c   --elim=false                   (different from default 'true')
c   --probe=false                  (different from default 'true')
c   --reduce=false                 (different from default 'true')
c   --subsume=false                (different from default 'true')
c   --ternary=false                (different from default 'true')
c   --transred=false               (different from default 'true')
c   --vivify=false                 (different from default 'true')
c 
c --- [ solving ] ------------------------------------------------------------
c 
c time measured in process time since initialization
c 
c  seconds  reductions  redundant  irredundant
c         MB    restarts       trail       variables
c          level   conflicts       glue         remaining
c 
c *  0.05 52  0 0   0    0    0  0% 0 304567 92936 86%
c {  0.05 53  0 0   0    0    0  0% 0 304567 92936 86%
c i  0.05 53  1 0   0    1    0 15% 0 304567 92114 85%
c i  0.05 53  1 0   0    2    0 15% 0 304567 92104 85%
c i  0.05 53  1 0   0    3    0 15% 0 304567 92085 85%
c i  0.05 53 66 0   1   15    9 16% 1 304567 92084 85%
c i  0.06 53 81 0   1   27   17 18% 1 304567 92074 85%
c i  0.07 53 126 0   1  106   95 31% 1 304567 92073 85%
c i  0.07 53 126 0   1  107   95 31% 1 304567 92047 85%
c i  0.07 53 124 0   1  111   97 30% 1 304567 92042 85%
c i  0.07 53 115 0   3  135  120 28% 1 304567 92038 85%
c i  0.07 53 114 0   3  136  120 28% 1 304567 91921 85%
c i  0.07 53 113 0   3  137  120 28% 1 304567 91920 85%
c i  0.07 53 113 0   3  138  120 28% 1 304567 91891 85%
c i  0.07 53 110 0   3  141  122 28% 1 304567 91861 85%
c i  0.07 53 110 0   3  142  122 28% 1 304567 91860 85%
c i  0.07 53 109 0   3  143  122 28% 1 304567 91858 85%
c i  0.07 53 104 0   3  150  128 27% 1 304567 91853 85%
c i  0.07 53 88 0   9  195  166 26% 1 304567 91694 85%
c i  0.07 53 88 0   9  199  168 26% 1 304567 91678 85%
c 
c  seconds  reductions  redundant  irredundant
c         MB    restarts       trail       variables
c          level   conflicts       glue         remaining
c 
c i  0.07 54 88 0   9  207  174 26% 1 304567 91673 85%
c i  0.07 54 88 0   9  208  174 26% 1 304567 91662 85%
c i  0.07 54 89 0   9  209  174 26% 1 304567 91652 85%
c i  0.07 54 89 0   9  210  174 26% 1 304567 91644 85%
c i  0.07 54 89 0   9  212  174 26% 1 304567 91634 85%
c i  0.07 54 89 0   9  217  178 26% 1 304567 91623 85%
c i  0.07 54 89 0   9  218  178 26% 1 304567 91611 85%
c i  0.07 54 89 0   9  219  178 26% 1 304567 91600 85%
c i  0.08 54 94 0  11  262  216 25% 1 304567 91583 85%
c i  0.08 54 94 0  11  263  216 25% 1 304567 91566 85%
c i  0.08 54 93 0  11  266  218 25% 1 304567 91524 85%
c i  0.09 54 77 0  38  399  336 25% 1 304567 91461 84%
c i  0.09 54 76 0  39  403  338 25% 1 304567 91438 84%
c i  0.09 54 73 0  46  427  360 24% 1 304567 91427 84%
c i  0.09 54 73 0  46  428  360 24% 1 304567 91418 84%
c i  0.09 54 72 0  47  429  360 24% 1 304567 91409 84%
c i  0.09 54 72 0  47  430  360 24% 1 304567 91400 84%
c i  0.09 54 72 0  47  431  360 24% 1 304567 91391 84%
c i  0.09 54 72 0  48  433  361 24% 1 304567 91382 84%
c i  0.09 54 71 0  48  434  361 24% 1 304567 91374 84%
c 
c  seconds  reductions  redundant  irredundant
c         MB    restarts       trail       variables
c          level   conflicts       glue         remaining
c 
c i  0.09 54 71 0  48  435  361 24% 1 304567 91364 84%
c i  0.09 54 71 0  48  436  361 24% 1 304567 91355 84%
c i  0.09 54 71 0  48  437  361 24% 1 304567 91346 84%
c i  0.09 54 71 0  48  438  361 24% 1 304567 91337 84%
... skipped 93 lines ...
c         MB    restarts       trail       variables
c          level   conflicts       glue         remaining
c 
c i  0.53 55 39 0 484 5118 4605 37% 2 304567 75410 70%
c i  0.53 55 39 0 484 5119 4605 37% 2 304567 75385 70%
c i  0.54 55 39 0 494 5159 4643 37% 2 304567 75347 70%
c i  0.55 55 39 0 501 5185 4665 37% 2 304567 75336 70%
c i  0.55 55 39 0 502 5186 4665 37% 2 304567 75320 70%
c i  0.55 55 39 0 502 5187 4665 37% 2 304567 75179 69%
c i  0.60 56 37 0 535 5631 5064 39% 2 304567 75178 69%
c #  0.63 56 37 0 574 6008 5406 39% 2 304567 75178 69%
c i  0.70 56 38 0 662 6491 5846 40% 2 304567 75096 69%
c i  0.71 56 37 0 673 6559 5904 40% 2 304567 75070 69%
c i  0.71 56 37 0 681 6606 5946 40% 2 304567 74984 69%
c i  0.74 56 37 0 698 6767 6089 41% 2 304567 74969 69%
c i  0.74 56 37 0 698 6801 6113 41% 2 304567 74958 69%
c i  0.77 56 37 0 713 6890 6196 41% 2 304567 74957 69%
c }  0.79 56 37 0 714 7002 6300 41% 2 304567 74957 69%
c [  0.79 56 138 0 714 7002 6300 55% 5 304567 74957 69%
c i  0.83 56 128 0 715 7345 6614 55% 5 304567 74943 69%
c i  0.83 56 128 0 715 7348 6616 55% 5 304567 74929 69%
c i  0.83 56 128 0 715 7349 6616 55% 5 304567 74919 69%
c i  0.86 56 124 0 715 7444 6701 56% 4 304567 74909 69%
c 
c  seconds   reductions  redundant  irredundant
c         MB     restarts       trail       variables
c           level   conflicts       glue         remaining
c 
c i  0.96 56 110 0 715 7873 7078 58% 4 304567 74816 69%
c i  0.97 56 109 0 715 7905 7104 58% 4 304567 74785 69%
c i  1.08 56 103 0 715 8140 7321 59% 4 304567 74752 69%
c i  1.09 56 102 0 715 8169 7348 59% 4 304567 74751 69%
c i  1.21 56 92 0 715 8613 7744 59% 4 304567 74750 69%
c i  1.42 56 79 0 715 9243 8301 59% 4 304567 74749 69%
c i  1.46 56 76 0 716 9502 8540 59% 4 304567 74745 69%
c i  1.47 56 75 0 716 9540 8570 59% 4 304567 74743 69%
c i  1.47 56 75 0 716 9559 8587 59% 4 304567 74739 69%
c I  1.53 56 71 0 716 10009 8995 60% 4 304567 74739 69%
c i  2.27 57 51 0 718 13169 11706 59% 5 304567 74734 69%
c i  2.33 57 50 0 719 13524 12037 58% 5 304567 74707 69%
c i  2.36 57 49 0 719 13646 12132 58% 5 304567 74642 69%
c i  2.44 57 47 0 719 14162 12582 58% 5 304567 74586 69%
c i  2.44 57 47 0 719 14164 12583 58% 5 304567 74561 69%
c i  2.58 58 45 0 719 14620 12972 57% 5 304567 74558 69%
c i  2.60 58 45 0 719 14668 12985 57% 5 304567 65217 60%
c i  2.60 58 45 0 719 14674 12987 57% 5 304567 61141 56%
c ]  2.60 58 45 0 719 14679 12990 57% 5 304567 59749 55%
c 0  2.60 58 45 0 719 14679 12990 57% 5 304567 59749 55%
c 
c --- [ result ] -------------------------------------------------------------
c 
s UNSATISFIABLE
c 
c --- [ run-time profiling ] -------------------------------------------------
c 
c process time taken by individual solving procedures
c (percentage relative to process time for solving)
c 
c         2.55  100.00% search
c         1.95   76.58% stable
c         0.60   23.40% unstable
c         0.05    2.06% parse
c         0.00    0.01% lucky
c         0.00    0.00% simplify
c   =================================
c         2.55   97.97% solve
c 
c last line shows process time for solving
c (percentage relative to total process time)
c 
c --- [ statistics ] ---------------------------------------------------------
c 
c chronological:              6502        44.29 %  of conflicts
c conflicts:                 14679      5760.82    per second
c decisions:                 47868     18785.95    per second
c fixed:                     48559        44.83 %  of all variables
c learned:                   14034        95.61 %  per conflict
c learned_lits:             431490       100.00 %  learned literals
c minimized:                     0         0.00 %  learned literals
c shrunken:                  99367        23.03 %  learned literals
c minishrunken:              94588        21.92 %  learned literals
c otfs:                        111         0.76 %  of conflict
c propagations:           49494977        19.42 M  per second
c rephased:                      4      3669.75    interval
c restarts:                    719        20.42    interval
c stabilizing:                   2        65.89 %  of conflicts
c subsumed:                    892         0.28 %  of all clauses
c strengthened:                106         0.03 %  of all clauses
c 
c seconds are measured in process time for solving
c 
c --- [ resources ] ----------------------------------------------------------
c 
c total process time since initialization:         2.60    seconds
c total real time since initialization:            2.62    seconds
c maximum resident set size of process:           55.58    MB
c 
c --- [ shutting down ] ------------------------------------------------------
c 
c exit 20
